5 10000 3
1 4 6
2 5 7
3 4 99
1 55 77
2 44 66
5 10000 3
1 0 6
2 0 7
3 0 99
1 0 77
2 0 66
5 10000 5
1 0 6
2 0 7
3 0 99
1 0 77
2 0 66
5 10000 3
1 0 6
2 5 7
1 0 6
2 0 7
2 0 66
3 5 3
1 6 0
2 0 0
3 0 0
3 5 3
1 0 5
2 0 1
3 0 2
3 5 3
1 0 0
2 0 0
3 0 0

